c random formula
p cnf 10 35
-10 7 -3 0
1 -6 -7 0
6 5 3 0
8 1 -5 0
9 10 5 0
9 1 -8 0
-8 -1 9 0
10 5 6 0
-7 -8 -3 0
9 1 -8 0
6 -2 -5 0
-4 10 2 0
-4 7 -8 0
-4 -1 8 0
5 -9 -8 0
-1 8 -3 0
-7 9 -5 0
3 2 5 0
-1 -10 -7 0
2 8 9 0
-7 1 -6 0
-8 2 1 0
2 -4 3 0
7 -9 3 0
-9 -8 6 0
-3 -10 -7 0
-8 -7 -9 0
-2 9 8 0
8 -2 6 0
-6 -3 4 0
8 5 3 0
5 4 -6 0
-4 -7 8 0
8 -10 -6 0
-10 -8 6 0
